WARNING: for repeatability, setting FPU to use double precision
============================[ Problem Statistics ]=============================
|                                                                             |
|  Number of variables:           100                                         |
|  Number of clauses:             449                                         |
|  Parse time:                   0.00 s                                       |
|  Eliminated clauses:           0.00 Mb                                      |
|  Simplification time:          0.00 s                                       |
|                                                                             |
============================[ Search Statistics ]==============================
| Conflicts |          ORIGINAL         |          LEARNT          | Progress |
|           |    Vars  Clauses Literals |    Limit  Clauses Lit/Cl |          |
===============================================================================
|       100 |      99      448     1353 |      164      100      6 |  0.020 % |
===============================================================================
restarts              : 2
conflicts             : 165            (60307 /sec)
decisions             : 212            (0.00 % random) (77485 /sec)
propagations          : 3676           (1343567 /sec)
conflict literals     : 931            (22.16 % deleted)
Memory used           : 13.00 MB
CPU time              : 0.002736 s

SATISFIABLE
